NAME : problems/40-tsp/instance-36.tsp
COMMENT : No Comment
TYPE : TSP
DIMENSION: 40
EDGE_WEIGHT_TYPE : EUC_2D
NODE_COORD_SECTION
1 8744 5070 
2 3453 6579 
3 9325 7908 
4 4610 8939 
5 7834 9727 
6 2807 2965 
7 2952 5404 
8 4885 4998 
9 3677 6574 
10 4030 5874 
11 5453 1663 
12 9294 7453 
13 5541 7934 
14 6435 399 
15 4435 9576 
16 7684 5052 
17 3946 7309 
18 9841 5803 
19 5710 2055 
20 7077 4844 
21 7269 7704 
22 9651 1468 
23 542 5423 
24 9494 3992 
25 9945 2258 
26 4189 2185 
27 9462 3130 
28 3893 5315 
29 2934 4551 
30 751 4943 
31 6253 9013 
32 6148 64 
33 4384 8448 
34 1490 451 
35 9909 6551 
36 336 8887 
37 9959 3571 
38 1975 6362 
39 5803 5269 
40 5673 4562 
EOF
